p cnf 867 1895
a 1 2 3 4 5 6 7 8 9 10 11 12 13 15 16 17 18 19 20 21 22 23 24 25 26 27 28 29 30 31 32 33 34 35 36 37 38 39 40 41 42 43 44 45 46 47 48 49 53 54 55 56 57 58 62 66 67 68 69 70 71 72 73 80 81 82 0
e 14 50 51 52 59 60 61 63 64 65 74 75 76 77 78 79 83 84 85 86 87 88 89 90 91 92 93 94 95 96 97 98 99 100 101 102 103 104 105 106 107 108 109 110 111 112 113 114 115 116 117 118 119 120 121 122 123 124 125 126 127 128 129 130 131 132 133 134 135 136 137 138 139 140 141 142 143 144 145 146 147 148 149 150 151 152 153 154 155 156 157 158 159 160 161 162 163 164 165 166 167 168 169 170 171 172 173 174 175 176 177 178 179 180 181 182 183 184 185 186 187 188 189 190 191 192 193 194 195 196 197 198 199 200 201 202 203 204 205 206 207 208 209 210 211 212 213 214 215 216 217 218 219 220 221 222 223 224 225 226 227 228 229 230 231 232 233 234 235 236 237 238 239 240 241 242 243 244 245 246 247 248 249 250 251 252 253 254 255 256 257 258 259 260 261 262 263 264 265 266 267 268 269 270 271 272 273 274 275 276 277 278 279 280 281 282 283 284 285 286 287 288 289 290 291 292 293 294 295 296 297 298 299 300 301 302 303 304 305 306 307 308 309 310 311 312 313 314 315 316 317 318 319 320 321 322 323 324 325 326 327 328 329 330 331 332 333 334 335 336 337 338 339 340 341 342 343 344 345 346 347 348 349 350 351 352 353 354 355 356 357 358 359 360 361 362 363 364 365 366 367 368 369 370 371 372 373 374 375 376 377 378 379 380 381 382 383 384 385 386 387 388 389 390 391 392 393 394 395 396 397 398 399 400 401 402 403 404 405 406 407 408 409 410 411 412 413 414 415 416 417 418 419 420 421 422 423 424 425 426 427 428 429 430 431 432 433 434 435 436 437 438 439 440 441 442 443 444 445 446 447 448 449 450 451 452 453 454 455 456 457 458 459 460 461 462 463 464 465 466 467 468 469 470 471 472 473 474 475 476 477 478 479 480 481 482 483 484 485 486 487 488 489 490 491 492 493 494 495 496 497 498 499 500 501 502 503 504 505 506 507 508 509 510 511 512 513 514 515 516 517 518 519 520 521 522 523 524 525 526 527 528 529 530 531 532 533 534 535 536 537 538 539 540 541 542 543 544 545 546 547 548 549 550 551 552 553 554 555 556 557 558 559 560 561 562 563 564 565 566 567 568 569 570 571 572 573 574 575 576 577 578 579 580 581 582 583 584 585 586 587 588 589 590 591 592 593 594 595 596 597 598 599 600 601 602 603 604 605 606 607 608 609 610 611 612 613 614 615 616 617 618 619 620 621 622 623 624 625 626 627 628 629 630 631 632 633 634 635 636 637 638 639 640 641 642 643 644 645 646 647 648 649 650 651 652 653 654 655 656 657 658 659 660 661 662 663 664 665 666 667 668 669 670 671 672 673 674 675 676 677 678 679 680 681 682 683 684 685 686 687 688 689 690 691 692 693 694 695 696 697 698 699 700 701 702 703 704 705 706 707 708 709 710 711 712 713 714 715 716 717 718 719 720 721 722 723 724 725 726 727 728 729 730 731 732 733 734 735 736 737 738 739 740 741 742 743 744 745 746 747 748 749 750 751 752 753 754 755 756 757 758 759 760 761 762 763 764 765 766 767 768 769 770 771 772 773 774 775 776 777 778 779 780 781 782 783 784 785 786 787 788 789 790 791 792 793 794 795 796 797 798 799 800 801 802 803 804 805 806 807 808 809 810 811 812 813 814 815 816 817 818 819 820 821 822 823 824 825 826 827 828 829 830 831 832 833 834 835 836 837 838 839 840 841 842 843 844 845 846 847 848 849 850 851 852 853 854 855 856 857 858 859 860 861 862 863 864 865 866 867 0
-867 0
867 -474 0
867 -866 0
-865 -556 -555 -547 -529 866 0
865 -584 0
865 -612 0
865 -634 0
865 -656 0
865 -672 0
865 -694 0
865 -710 0
865 -732 0
865 -748 0
865 -764 0
865 -780 0
865 -796 0
865 -812 0
865 -828 0
865 -844 0
865 -860 0
865 -861 0
865 -862 0
865 -863 0
865 -864 0
-5 4 864 0
-4 6 863 0
-3 2 862 0
-2 1 861 0
-859 -854 -849 860 0
859 -652 0
859 -653 0
859 -581 0
859 -855 0
859 -856 0
859 -857 0
859 -858 0
859 -582 0
859 -73 0
859 -72 0
859 -57 0
859 -56 0
859 -39 0
859 -38 0
859 -37 0
-3 75 858 0
-6 -75 857 0
-45 -74 856 0
-42 74 855 0
854 -646 0
854 -647 0
854 -850 0
854 -851 0
854 -572 0
854 -852 0
854 -853 0
854 -573 0
854 -71 0
854 -70 0
854 -54 0
854 -53 0
854 -26 0
854 -25 0
854 -24 0
-2 75 853 0
-4 -75 852 0
-32 -74 851 0
-29 74 850 0
849 -638 0
849 -639 0
849 -562 0
849 -845 0
849 -846 0
849 -847 0
849 -848 0
849 -564 0
849 -69 0
849 -68 0
849 -48 0
849 -47 0
849 -12 0
849 -11 0
849 -10 0
-1 75 848 0
-5 -75 847 0
-19 -74 846 0
-16 74 845 0
-843 -838 -833 844 0
843 -690 0
843 -839 0
843 -728 0
843 -729 0
843 -840 0
843 -691 0
843 -841 0
843 -842 0
843 -40 0
843 -39 0
843 -38 0
843 -37 0
843 -36 0
843 -35 0
843 -34 0
-3 14 842 0
-6 -14 841 0
-14 -45 840 0
14 -42 839 0
838 -684 0
838 -834 0
838 -722 0
838 -685 0
838 -835 0
838 -723 0
838 -836 0
838 -837 0
838 -27 0
838 -26 0
838 -25 0
838 -24 0
838 -23 0
838 -22 0
838 -21 0
-2 14 837 0
-4 -14 836 0
-14 -32 835 0
-29 14 834 0
833 -829 0
833 -715 0
833 -830 0
833 -716 0
833 -677 0
833 -678 0
833 -831 0
833 -832 0
833 -13 0
833 -12 0
833 -11 0
833 -10 0
833 -9 0
833 -8 0
833 -7 0
-1 14 832 0
-5 -14 831 0
-14 -19 830 0
-16 14 829 0
-827 -822 -817 828 0
827 -631 0
827 -823 0
827 -632 0
827 -824 0
827 -728 0
827 -729 0
827 -825 0
827 -826 0
827 -73 0
827 -72 0
827 -56 0
827 -39 0
827 -38 0
827 -37 0
827 -36 0
-6 -51 826 0
-3 51 825 0
-45 -50 824 0
-42 50 823 0
822 -624 0
822 -818 0
822 -722 0
822 -723 0
822 -625 0
822 -819 0
822 -820 0
822 -821 0
822 -71 0
822 -70 0
822 -53 0
822 -26 0
822 -25 0
822 -24 0
822 -23 0
-4 -51 821 0
-2 51 820 0
-32 -50 819 0
-29 50 818 0
817 -813 0
817 -616 0
817 -715 0
817 -716 0
817 -618 0
817 -814 0
817 -815 0
817 -816 0
817 -69 0
817 -68 0
817 -47 0
817 -12 0
817 -11 0
817 -10 0
817 -9 0
-5 -51 816 0
-1 51 815 0
-19 -50 814 0
-16 50 813 0
-811 -806 -801 812 0
811 -807 0
811 -808 0
811 -631 0
811 -632 0
811 -652 0
811 -653 0
811 -809 0
811 -810 0
811 -72 0
811 -57 0
811 -40 0
811 -39 0
811 -38 0
811 -37 0
811 -34 0
-6 -52 810 0
-3 52 809 0
-45 -52 808 0
-42 52 807 0
806 -802 0
806 -624 0
806 -646 0
806 -647 0
806 -625 0
806 -803 0
806 -804 0
806 -805 0
806 -70 0
806 -54 0
806 -27 0
806 -26 0
806 -25 0
806 -24 0
806 -21 0
-32 -52 805 0
-4 -52 804 0
-2 52 803 0
-29 52 802 0
801 -797 0
801 -798 0
801 -616 0
801 -638 0
801 -639 0
801 -618 0
801 -799 0
801 -800 0
801 -68 0
801 -48 0
801 -13 0
801 -12 0
801 -11 0
801 -10 0
801 -7 0
-5 -52 800 0
-1 52 799 0
-19 -52 798 0
-16 52 797 0
-795 -790 -785 796 0
795 -791 0
795 -792 0
795 -690 0
795 -652 0
795 -653 0
795 -691 0
795 -793 0
795 -794 0
795 -58 0
795 -57 0
795 -56 0
795 -40 0
795 -38 0
795 -37 0
795 -35 0
-45 -51 794 0
-6 -50 793 0
-42 51 792 0
-3 50 791 0
790 -786 0
790 -787 0
790 -788 0
790 -684 0
790 -685 0
790 -646 0
790 -647 0
790 -789 0
790 -55 0
790 -54 0
790 -53 0
790 -27 0
790 -25 0
790 -24 0
790 -22 0
-32 -51 789 0
-4 -50 788 0
-29 51 787 0
-2 50 786 0
785 -781 0
785 -782 0
785 -783 0
785 -638 0
785 -639 0
785 -677 0
785 -678 0
785 -784 0
785 -49 0
785 -48 0
785 -47 0
785 -13 0
785 -11 0
785 -10 0
785 -8 0
-19 -51 784 0
-5 -50 783 0
-16 51 782 0
-1 50 781 0
-779 -774 -769 780 0
779 -775 0
779 -728 0
779 -729 0
779 -581 0
779 -582 0
779 -776 0
779 -777 0
779 -778 0
779 -72 0
779 -56 0
779 -40 0
779 -39 0
779 -38 0
779 -37 0
779 -36 0
-6 -60 778 0
-3 60 777 0
-42 59 776 0
-45 -59 775 0
774 -770 0
774 -771 0
774 -722 0
774 -723 0
774 -572 0
774 -573 0
774 -772 0
774 -773 0
774 -70 0
774 -53 0
774 -27 0
774 -26 0
774 -25 0
774 -24 0
774 -23 0
-4 -60 773 0
-2 60 772 0
-32 -59 771 0
-29 59 770 0
769 -765 0
769 -715 0
769 -562 0
769 -716 0
769 -564 0
769 -766 0
769 -767 0
769 -768 0
769 -68 0
769 -47 0
769 -13 0
769 -12 0
769 -11 0
769 -10 0
769 -9 0
-5 -60 768 0
-1 60 767 0
-16 59 766 0
-19 -59 765 0
-763 -758 -753 764 0
763 -609 0
763 -610 0
763 -759 0
763 -760 0
763 -581 0
763 -761 0
763 -762 0
763 -582 0
763 -72 0
763 -57 0
763 -40 0
763 -39 0
763 -38 0
763 -37 0
763 -34 0
-3 61 762 0
-6 -61 761 0
-45 -61 760 0
-42 61 759 0
758 -600 0
758 -601 0
758 -754 0
758 -755 0
758 -572 0
758 -756 0
758 -757 0
758 -573 0
758 -70 0
758 -54 0
758 -27 0
758 -26 0
758 -25 0
758 -24 0
758 -21 0
-2 61 757 0
-4 -61 756 0
-32 -61 755 0
-29 61 754 0
753 -590 0
753 -591 0
753 -749 0
753 -750 0
753 -562 0
753 -751 0
753 -752 0
753 -564 0
753 -68 0
753 -48 0
753 -13 0
753 -12 0
753 -11 0
753 -10 0
753 -7 0
-1 61 752 0
-5 -61 751 0
-19 -61 750 0
-16 61 749 0
-747 -742 -737 748 0
747 -743 0
747 -609 0
747 -610 0
747 -690 0
747 -691 0
747 -744 0
747 -745 0
747 -746 0
747 -57 0
747 -56 0
747 -40 0
747 -39 0
747 -38 0
747 -37 0
747 -35 0
-45 -60 746 0
-3 59 745 0
-6 -59 744 0
-42 60 743 0
742 -738 0
742 -600 0
742 -601 0
742 -684 0
742 -685 0
742 -739 0
742 -740 0
742 -741 0
742 -54 0
742 -53 0
742 -27 0
742 -26 0
742 -25 0
742 -24 0
742 -22 0
-32 -60 741 0
-2 59 740 0
-4 -59 739 0
-29 60 738 0
737 -590 0
737 -591 0
737 -677 0
737 -733 0
737 -734 0
737 -678 0
737 -735 0
737 -736 0
737 -48 0
737 -47 0
737 -13 0
737 -12 0
737 -11 0
737 -10 0
737 -8 0
-19 -60 736 0
-5 -59 735 0
-1 59 734 0
-16 60 733 0
-731 -724 -717 732 0
731 -607 0
731 -725 0
731 -726 0
731 -608 0
731 -727 0
731 -728 0
731 -729 0
731 -730 0
731 -82 0
731 -72 0
731 -56 0
731 -40 0
731 -39 0
731 -38 0
731 -36 0
-6 -64 730 0
-14 -46 729 0
14 -43 728 0
-45 -63 727 0
-42 63 726 0
-3 64 725 0
724 -598 0
724 -718 0
724 -719 0
724 -599 0
724 -720 0
724 -721 0
724 -722 0
724 -723 0
724 -81 0
724 -70 0
724 -53 0
724 -27 0
724 -26 0
724 -25 0
724 -23 0
-14 -33 723 0
-30 14 722 0
-32 -63 721 0
-4 -64 720 0
-29 63 719 0
-2 64 718 0
717 -588 0
717 -711 0
717 -712 0
717 -589 0
717 -713 0
717 -714 0
717 -715 0
717 -716 0
717 -80 0
717 -68 0
717 -47 0
717 -13 0
717 -12 0
717 -11 0
717 -9 0
-14 -20 716 0
-17 14 715 0
-19 -63 714 0
-5 -64 713 0
-16 63 712 0
-1 64 711 0
-709 -704 -699 710 0
709 -579 0
709 -580 0
709 -705 0
709 -706 0
709 -707 0
709 -607 0
709 -608 0
709 -708 0
709 -82 0
709 -72 0
709 -67 0
709 -57 0
709 -40 0
709 -39 0
709 -34 0
-6 -65 708 0
-45 -65 707 0
-42 65 706 0
-3 65 705 0
704 -570 0
704 -571 0
704 -700 0
704 -701 0
704 -702 0
704 -703 0
704 -598 0
704 -599 0
704 -81 0
704 -70 0
704 -66 0
704 -54 0
704 -27 0
704 -26 0
704 -21 0
-32 -65 703 0
-4 -65 702 0
-29 65 701 0
-2 65 700 0
699 -560 0
699 -561 0
699 -695 0
699 -696 0
699 -697 0
699 -698 0
699 -588 0
699 -589 0
699 -80 0
699 -68 0
699 -62 0
699 -48 0
699 -13 0
699 -12 0
699 -7 0
-19 -65 698 0
-5 -65 697 0
-16 65 696 0
-1 65 695 0
-693 -686 -679 694 0
693 -687 0
693 -688 0
693 -689 0
693 -579 0
693 -580 0
693 -690 0
693 -691 0
693 -692 0
693 -67 0
693 -57 0
693 -56 0
693 -40 0
693 -39 0
693 -37 0
693 -35 0
-6 -63 692 0
-14 -44 691 0
14 -41 690 0
-45 -64 689 0
-42 64 688 0
-3 63 687 0
686 -680 0
686 -681 0
686 -682 0
686 -683 0
686 -570 0
686 -571 0
686 -684 0
686 -685 0
686 -66 0
686 -54 0
686 -53 0
686 -27 0
686 -26 0
686 -24 0
686 -22 0
-14 -31 685 0
-28 14 684 0
-32 -64 683 0
-4 -63 682 0
-29 64 681 0
-2 63 680 0
679 -673 0
679 -674 0
679 -675 0
679 -676 0
679 -560 0
679 -561 0
679 -677 0
679 -678 0
679 -62 0
679 -48 0
679 -47 0
679 -13 0
679 -12 0
679 -10 0
679 -8 0
-15 14 678 0
-14 -18 677 0
-19 -64 676 0
-5 -63 675 0
-16 64 674 0
-1 63 673 0
-671 -666 -661 672 0
671 -667 0
671 -668 0
671 -669 0
671 -609 0
671 -610 0
671 -631 0
671 -632 0
671 -670 0
671 -72 0
671 -58 0
671 -57 0
671 -56 0
671 -40 0
671 -38 0
671 -37 0
-45 -75 670 0
-6 -74 669 0
-42 75 668 0
-3 74 667 0
666 -662 0
666 -663 0
666 -600 0
666 -601 0
666 -624 0
666 -625 0
666 -664 0
666 -665 0
666 -70 0
666 -55 0
666 -54 0
666 -53 0
666 -27 0
666 -25 0
666 -24 0
-29 75 665 0
-32 -75 664 0
-4 -74 663 0
-2 74 662 0
661 -657 0
661 -658 0
661 -590 0
661 -591 0
661 -616 0
661 -618 0
661 -659 0
661 -660 0
661 -68 0
661 -49 0
661 -48 0
661 -47 0
661 -13 0
661 -11 0
661 -10 0
-16 75 660 0
-19 -75 659 0
-5 -74 658 0
-1 74 657 0
-655 -648 -641 656 0
655 -649 0
655 -650 0
655 -651 0
655 -607 0
655 -608 0
655 -652 0
655 -653 0
655 -654 0
655 -82 0
655 -72 0
655 -57 0
655 -56 0
655 -40 0
655 -39 0
655 -38 0
-45 -76 654 0
-46 -52 653 0
-43 52 652 0
-6 -77 651 0
-42 76 650 0
-3 77 649 0
648 -642 0
648 -643 0
648 -644 0
648 -645 0
648 -598 0
648 -599 0
648 -646 0
648 -647 0
648 -81 0
648 -70 0
648 -54 0
648 -53 0
648 -27 0
648 -26 0
648 -25 0
-33 -52 647 0
-30 52 646 0
-32 -76 645 0
-4 -77 644 0
-29 76 643 0
-2 77 642 0
641 -635 0
641 -636 0
641 -637 0
641 -588 0
641 -589 0
641 -638 0
641 -639 0
641 -640 0
641 -80 0
641 -68 0
641 -48 0
641 -47 0
641 -13 0
641 -12 0
641 -11 0
-19 -76 640 0
-20 -52 639 0
-17 52 638 0
-5 -77 637 0
-16 76 636 0
-1 77 635 0
-633 -626 -619 634 0
633 -627 0
633 -628 0
633 -629 0
633 -630 0
633 -579 0
633 -580 0
633 -631 0
633 -632 0
633 -72 0
633 -67 0
633 -57 0
633 -56 0
633 -40 0
633 -39 0
633 -37 0
-44 -52 632 0
-41 52 631 0
-45 -77 630 0
-6 -76 629 0
-42 77 628 0
-3 76 627 0
626 -620 0
626 -621 0
626 -622 0
626 -623 0
626 -570 0
626 -571 0
626 -624 0
626 -625 0
626 -70 0
626 -66 0
626 -54 0
626 -53 0
626 -27 0
626 -26 0
626 -24 0
-31 -52 625 0
-28 52 624 0
-32 -77 623 0
-4 -76 622 0
-29 77 621 0
-2 76 620 0
619 -613 0
619 -614 0
619 -615 0
619 -560 0
619 -561 0
619 -616 0
619 -617 0
619 -618 0
619 -68 0
619 -62 0
619 -48 0
619 -47 0
619 -13 0
619 -12 0
619 -10 0
-15 52 618 0
-19 -77 617 0
-18 -52 616 0
-5 -76 615 0
-16 77 614 0
-1 76 613 0
-611 -602 -593 612 0
611 -603 0
611 -604 0
611 -605 0
611 -606 0
611 -607 0
611 -608 0
611 -609 0
611 -610 0
611 -82 0
611 -73 0
611 -72 0
611 -57 0
611 -56 0
611 -39 0
611 -38 0
-46 -61 610 0
-43 61 609 0
-44 -65 608 0
-41 65 607 0
-45 -78 606 0
-6 -79 605 0
-42 78 604 0
-3 79 603 0
602 -594 0
602 -595 0
602 -596 0
602 -597 0
602 -598 0
602 -599 0
602 -600 0
602 -601 0
602 -81 0
602 -71 0
602 -70 0
602 -54 0
602 -53 0
602 -26 0
602 -25 0
-33 -61 601 0
-30 61 600 0
-31 -65 599 0
-28 65 598 0
-32 -78 597 0
-4 -79 596 0
-29 78 595 0
-2 79 594 0
593 -585 0
593 -586 0
593 -587 0
593 -588 0
593 -589 0
593 -590 0
593 -591 0
593 -592 0
593 -80 0
593 -69 0
593 -68 0
593 -48 0
593 -47 0
593 -12 0
593 -11 0
-19 -78 592 0
-20 -61 591 0
-17 61 590 0
-18 -65 589 0
-15 65 588 0
-5 -79 587 0
-16 78 586 0
-1 79 585 0
-583 -574 -565 584 0
583 -575 0
583 -576 0
583 -577 0
583 -578 0
583 -579 0
583 -580 0
583 -581 0
583 -582 0
583 -72 0
583 -67 0
583 -58 0
583 -57 0
583 -56 0
583 -40 0
583 -37 0
-41 61 582 0
-44 -61 581 0
-46 -65 580 0
-43 65 579 0
-45 -79 578 0
-6 -78 577 0
-42 79 576 0
-3 78 575 0
574 -566 0
574 -567 0
574 -568 0
574 -569 0
574 -570 0
574 -571 0
574 -572 0
574 -573 0
574 -70 0
574 -66 0
574 -55 0
574 -54 0
574 -53 0
574 -27 0
574 -24 0
-28 61 573 0
-31 -61 572 0
-33 -65 571 0
-30 65 570 0
-32 -79 569 0
-4 -78 568 0
-29 79 567 0
-2 78 566 0
565 -557 0
565 -558 0
565 -559 0
565 -560 0
565 -561 0
565 -562 0
565 -563 0
565 -564 0
565 -68 0
565 -62 0
565 -49 0
565 -48 0
565 -47 0
565 -13 0
565 -10 0
-15 61 564 0
-19 -79 563 0
-18 -61 562 0
-20 -65 561 0
-17 65 560 0
-5 -78 559 0
-16 79 558 0
-1 78 557 0
556 -528 0
556 -546 0
556 -554 0
556 -14 0
555 -513 0
555 -538 0
555 -554 0
555 -52 0
-553 -550 554 0
553 -551 0
553 -552 0
553 -521 0
553 -522 0
553 -51 0
-74 -519 552 0
-76 -542 551 0
550 -548 0
550 -549 0
550 -506 0
550 -507 0
550 -50 0
-59 -504 549 0
-63 -534 548 0
547 -497 0
547 -538 0
547 -546 0
547 -61 0
-545 -541 546 0
545 -543 0
545 -544 0
545 -517 0
545 -518 0
545 -60 0
-75 -523 544 0
-78 -542 543 0
542 -525 0
542 -526 0
542 -64 0
541 -539 0
541 -540 0
541 -490 0
541 -491 0
541 -59 0
-50 -488 540 0
-63 -530 539 0
-537 -533 538 0
537 -535 0
537 -536 0
537 -502 0
537 -503 0
537 -75 0
-60 -508 536 0
-78 -534 535 0
534 -510 0
534 -511 0
534 -77 0
533 -531 0
533 -532 0
533 -486 0
533 -487 0
533 -74 0
-51 -492 532 0
-76 -530 531 0
530 -494 0
530 -495 0
530 -79 0
529 -497 0
529 -513 0
529 -528 0
529 -65 0
-527 -516 528 0
527 -520 0
527 -524 0
527 -525 0
527 -526 0
527 -64 0
-51 -77 526 0
-60 -79 525 0
-77 -523 524 0
523 -521 0
523 -522 0
523 -51 0
-64 -76 522 0
-60 -74 521 0
-79 -519 520 0
519 -517 0
519 -518 0
519 -60 0
-51 -75 518 0
-64 -78 517 0
516 -514 0
516 -475 0
516 -515 0
516 -476 0
516 -63 0
-50 -481 515 0
-59 -498 514 0
-512 -501 513 0
512 -505 0
512 -509 0
512 -510 0
512 -511 0
512 -77 0
-50 -64 511 0
-75 -79 510 0
-64 -508 509 0
508 -506 0
508 -507 0
508 -50 0
-59 -75 507 0
-63 -77 506 0
-79 -504 505 0
504 -502 0
504 -503 0
504 -75 0
-50 -60 503 0
-77 -78 502 0
501 -499 0
501 -500 0
501 -479 0
501 -480 0
501 -76 0
-51 -477 500 0
-74 -498 499 0
498 -483 0
498 -484 0
498 -78 0
-496 -485 497 0
496 -489 0
496 -493 0
496 -494 0
496 -495 0
496 -79 0
-59 -64 495 0
-74 -77 494 0
-64 -492 493 0
492 -490 0
492 -491 0
492 -59 0
-50 -74 491 0
-63 -79 490 0
-77 -488 489 0
488 -486 0
488 -487 0
488 -74 0
-51 -59 487 0
-76 -79 486 0
485 -478 0
485 -482 0
485 -483 0
485 -484 0
485 -78 0
-60 -63 484 0
-75 -76 483 0
-75 -481 482 0
481 -479 0
481 -480 0
481 -76 0
-51 -63 480 0
-74 -78 479 0
-60 -477 478 0
477 -475 0
477 -476 0
477 -63 0
-50 -76 476 0
-59 -78 475 0
-473 -472 -471 -470 -469 -453 -437 -421 -405 -389 -373 -357 -341 -319 -303 -281 -265 -243 -221 -193 -165 474 0
473 5 0
473 -4 0
472 4 0
472 -6 0
471 3 0
471 -2 0
470 2 0
470 -1 0
469 -458 0
469 -463 0
469 -468 0
39 38 37 56 57 73 72 -191 -467 -466 -465 -464 -190 -262 -261 468 0
467 75 0
467 6 0
466 -75 0
466 3 0
465 74 0
465 45 0
464 42 0
464 -74 0
25 24 26 54 53 71 70 -182 -462 -461 -181 -460 -459 -256 -255 463 0
462 75 0
462 4 0
461 -75 0
461 2 0
460 74 0
460 32 0
459 -74 0
459 29 0
12 11 10 69 68 48 47 -173 -457 -456 -455 -454 -171 -248 -247 458 0
457 75 0
457 5 0
456 -75 0
456 1 0
455 74 0
455 19 0
454 -74 0
454 16 0
453 -442 0
453 -447 0
453 -452 0
39 38 35 37 36 34 40 -451 -450 -300 -449 -338 -337 -448 -299 452 0
451 14 0
451 6 0
450 3 0
450 -14 0
449 45 0
449 14 0
448 42 0
448 -14 0
25 24 23 22 21 27 26 -446 -445 -332 -444 -294 -331 -443 -293 447 0
446 14 0
446 4 0
445 2 0
445 -14 0
444 32 0
444 14 0
443 29 0
443 -14 0
13 9 7 8 12 11 10 -287 -441 -440 -286 -325 -439 -324 -438 442 0
441 14 0
441 5 0
440 1 0
440 -14 0
439 14 0
439 19 0
438 16 0
438 -14 0
437 -426 0
437 -431 0
437 -436 0
39 38 37 36 56 73 72 -435 -434 -338 -337 -433 -241 -432 -240 436 0
435 51 0
435 6 0
434 -51 0
434 3 0
433 45 0
433 50 0
432 42 0
432 -50 0
25 24 23 26 53 71 70 -430 -429 -428 -234 -332 -331 -427 -233 431 0
430 51 0
430 4 0
429 -51 0
429 2 0
428 50 0
428 32 0
427 -50 0
427 29 0
9 12 11 10 69 68 47 -425 -424 -423 -227 -325 -324 -225 -422 426 0
425 51 0
425 5 0
424 -51 0
424 1 0
423 50 0
423 19 0
422 -50 0
422 16 0
421 -410 0
421 -415 0
421 -420 0
39 38 37 34 40 57 72 -419 -418 -262 -261 -241 -240 -417 -416 420 0
419 -52 0
419 3 0
418 52 0
418 6 0
417 45 0
417 52 0
416 42 0
416 -52 0
25 24 21 27 26 54 70 -414 -413 -412 -234 -256 -255 -233 -411 415 0
414 52 0
414 32 0
413 -52 0
413 2 0
412 52 0
412 4 0
411 -52 0
411 29 0
13 7 12 11 10 68 48 -409 -408 -227 -248 -247 -225 -407 -406 410 0
409 -52 0
409 1 0
408 52 0
408 5 0
407 52 0
407 19 0
406 -52 0
406 16 0
405 -394 0
405 -399 0
405 -404 0
38 35 37 56 40 58 57 -403 -402 -300 -262 -261 -299 -401 -400 404 0
403 45 0
403 51 0
402 50 0
402 6 0
401 42 0
401 -51 0
400 -50 0
400 3 0
25 24 22 27 54 53 55 -398 -256 -255 -294 -293 -397 -396 -395 399 0
398 51 0
398 32 0
397 50 0
397 4 0
396 -51 0
396 29 0
395 -50 0
395 2 0
13 8 11 10 49 48 47 -393 -287 -286 -248 -247 -392 -391 -390 394 0
393 51 0
393 19 0
392 50 0
392 5 0
391 -51 0
391 16 0
390 -50 0
390 1 0
389 -378 0
389 -383 0
389 -388 0
39 38 37 36 56 40 72 -387 -386 -385 -191 -190 -338 -337 -384 388 0
387 60 0
387 6 0
386 -60 0
386 3 0
385 42 0
385 -59 0
384 59 0
384 45 0
25 24 23 27 26 53 70 -382 -381 -182 -181 -332 -331 -380 -379 383 0
382 60 0
382 4 0
381 -60 0
381 2 0
380 59 0
380 32 0
379 -59 0
379 29 0
13 9 12 11 10 68 47 -377 -376 -375 -173 -325 -171 -324 -374 378 0
377 60 0
377 5 0
376 -60 0
376 1 0
375 -59 0
375 16 0
374 59 0
374 19 0
373 -362 0
373 -367 0
373 -372 0
39 38 37 34 40 57 72 -191 -371 -370 -190 -369 -368 -219 -218 372 0
371 61 0
371 6 0
370 -61 0
370 3 0
369 45 0
369 61 0
368 42 0
368 -61 0
25 24 21 27 26 54 70 -182 -366 -365 -181 -364 -363 -210 -209 367 0
366 61 0
366 4 0
365 -61 0
365 2 0
364 61 0
364 32 0
363 -61 0
363 29 0
13 7 12 11 10 68 48 -173 -361 -360 -171 -359 -358 -200 -199 362 0
361 61 0
361 5 0
360 -61 0
360 1 0
359 61 0
359 19 0
358 -61 0
358 16 0
357 -346 0
357 -351 0
357 -356 0
39 38 35 37 56 40 57 -355 -354 -353 -300 -299 -219 -218 -352 356 0
355 60 0
355 45 0
354 -59 0
354 3 0
353 59 0
353 6 0
352 42 0
352 -60 0
25 24 22 27 26 54 53 -350 -349 -348 -294 -293 -210 -209 -347 351 0
350 60 0
350 32 0
349 -59 0
349 2 0
348 59 0
348 4 0
347 -60 0
347 29 0
13 8 12 11 10 48 47 -345 -344 -287 -343 -342 -286 -200 -199 346 0
345 60 0
345 19 0
344 59 0
344 5 0
343 -59 0
343 1 0
342 -60 0
342 16 0
341 -326 0
341 -333 0
341 -340 0
39 38 36 56 40 72 82 -339 -338 -337 -336 -217 -335 -334 -216 340 0
339 64 0
339 6 0
338 46 0
338 14 0
337 43 0
337 -14 0
336 63 0
336 45 0
335 42 0
335 -63 0
334 -64 0
334 3 0
25 23 27 26 53 81 70 -332 -331 -330 -329 -208 -328 -327 -207 333 0
332 33 0
332 14 0
331 30 0
331 -14 0
330 63 0
330 32 0
329 64 0
329 4 0
328 -63 0
328 29 0
327 -64 0
327 2 0
13 9 12 11 68 47 80 -325 -324 -323 -322 -198 -321 -320 -197 326 0
325 14 0
325 20 0
324 17 0
324 -14 0
323 63 0
323 19 0
322 64 0
322 5 0
321 -63 0
321 16 0
320 -64 0
320 1 0
319 -308 0
319 -313 0
319 -318 0
39 34 67 40 57 72 82 -317 -217 -216 -316 -315 -314 -189 -188 318 0
317 65 0
317 6 0
316 65 0
316 45 0
315 42 0
315 -65 0
314 -65 0
314 3 0
21 27 26 54 81 66 70 -208 -207 -312 -311 -310 -309 -180 -179 313 0
312 65 0
312 32 0
311 65 0
311 4 0
310 -65 0
310 29 0
309 -65 0
309 2 0
13 7 12 68 48 62 80 -198 -197 -307 -306 -305 -304 -170 -169 308 0
307 65 0
307 19 0
306 65 0
306 5 0
305 -65 0
305 16 0
304 -65 0
304 1 0
303 -288 0
303 -295 0
303 -302 0
39 35 37 56 67 40 57 -301 -300 -299 -189 -188 -298 -297 -296 302 0
301 63 0
301 6 0
300 44 0
300 14 0
299 41 0
299 -14 0
298 64 0
298 45 0
297 42 0
297 -64 0
296 -63 0
296 3 0
24 22 27 26 54 53 66 -294 -293 -180 -179 -292 -291 -290 -289 295 0
294 31 0
294 14 0
293 28 0
293 -14 0
292 64 0
292 32 0
291 63 0
291 4 0
290 -64 0
290 29 0
289 -63 0
289 2 0
13 8 12 10 48 62 47 -287 -286 -170 -169 -285 -284 -283 -282 288 0
287 15 0
287 -14 0
286 14 0
286 18 0
285 64 0
285 19 0
284 63 0
284 5 0
283 -64 0
283 16 0
282 -63 0
282 1 0
281 -270 0
281 -275 0
281 -280 0
38 37 56 40 58 57 72 -279 -241 -240 -219 -218 -278 -277 -276 280 0
279 75 0
279 45 0
278 74 0
278 6 0
277 42 0
277 -75 0
276 -74 0
276 3 0
25 24 27 54 53 55 70 -274 -273 -234 -233 -210 -209 -272 -271 275 0
274 -75 0
274 29 0
273 75 0
273 32 0
272 74 0
272 4 0
271 -74 0
271 2 0
13 11 10 68 49 48 47 -269 -268 -227 -225 -200 -199 -267 -266 270 0
269 -75 0
269 16 0
268 75 0
268 19 0
267 74 0
267 5 0
266 -74 0
266 1 0
265 -250 0
265 -257 0
265 -264 0
39 38 56 40 57 72 82 -263 -262 -261 -217 -216 -260 -259 -258 264 0
263 45 0
263 76 0
262 46 0
262 52 0
261 43 0
261 -52 0
260 77 0
260 6 0
259 42 0
259 -76 0
258 -77 0
258 3 0
25 27 26 54 53 81 70 -256 -255 -208 -207 -254 -253 -252 -251 257 0
256 52 0
256 33 0
255 -52 0
255 30 0
254 76 0
254 32 0
253 77 0
253 4 0
252 -76 0
252 29 0
251 -77 0
251 2 0
13 12 11 68 48 47 80 -249 -248 -247 -198 -197 -246 -245 -244 250 0
249 76 0
249 19 0
248 52 0
248 20 0
247 -52 0
247 17 0
246 77 0
246 5 0
245 -76 0
245 16 0
244 -77 0
244 1 0
243 -228 0
243 -235 0
243 -242 0
39 37 56 67 40 57 72 -241 -240 -189 -188 -239 -238 -237 -236 242 0
241 44 0
241 52 0
240 41 0
240 -52 0
239 77 0
239 45 0
238 76 0
238 6 0
237 42 0
237 -77 0
236 -76 0
236 3 0
24 27 26 54 53 66 70 -234 -233 -180 -179 -232 -231 -230 -229 235 0
234 52 0
234 31 0
233 -52 0
233 28 0
232 77 0
232 32 0
231 76 0
231 4 0
230 -77 0
230 29 0
229 -76 0
229 2 0
13 12 10 68 48 62 47 -227 -226 -225 -170 -169 -224 -223 -222 228 0
227 -52 0
227 15 0
226 77 0
226 19 0
225 52 0
225 18 0
224 76 0
224 5 0
223 -77 0
223 16 0
222 -76 0
222 1 0
221 -202 0
221 -211 0
221 -220 0
39 38 56 57 73 72 82 -219 -218 -217 -216 -215 -214 -213 -212 220 0
219 46 0
219 61 0
218 43 0
218 -61 0
217 44 0
217 65 0
216 41 0
216 -65 0
215 78 0
215 45 0
214 79 0
214 6 0
213 42 0
213 -78 0
212 -79 0
212 3 0
25 26 54 53 81 71 70 -210 -209 -208 -207 -206 -205 -204 -203 211 0
210 61 0
210 33 0
209 -61 0
209 30 0
208 65 0
208 31 0
207 -65 0
207 28 0
206 78 0
206 32 0
205 79 0
205 4 0
204 -78 0
204 29 0
203 -79 0
203 2 0
12 11 69 68 48 47 80 -201 -200 -199 -198 -197 -196 -195 -194 202 0
201 78 0
201 19 0
200 61 0
200 20 0
199 -61 0
199 17 0
198 65 0
198 18 0
197 -65 0
197 15 0
196 79 0
196 5 0
195 -78 0
195 16 0
194 -79 0
194 1 0
193 -174 0
193 -183 0
193 -192 0
37 56 67 40 58 57 72 -191 -190 -189 -188 -187 -186 -185 -184 192 0
191 41 0
191 -61 0
190 44 0
190 61 0
189 65 0
189 46 0
188 43 0
188 -65 0
187 79 0
187 45 0
186 78 0
186 6 0
185 42 0
185 -79 0
184 -78 0
184 3 0
24 27 54 53 55 66 70 -182 -181 -180 -179 -178 -177 -176 -175 183 0
182 -61 0
182 28 0
181 61 0
181 31 0
180 65 0
180 33 0
179 -65 0
179 30 0
178 79 0
178 32 0
177 78 0
177 4 0
176 -79 0
176 29 0
175 -78 0
175 2 0
13 10 68 49 48 62 47 -173 -172 -171 -170 -169 -168 -167 -166 174 0
173 -61 0
173 15 0
172 79 0
172 19 0
171 61 0
171 18 0
170 65 0
170 20 0
169 -65 0
169 17 0
168 78 0
168 5 0
167 -79 0
167 16 0
166 -78 0
166 1 0
165 -137 0
165 -155 0
165 -163 0
165 -164 0
14 -162 -154 -136 164 0
52 -162 -146 -121 163 0
162 -158 0
162 -161 0
51 -130 -129 -160 -159 161 0
160 -127 0
160 74 0
159 -150 0
159 76 0
50 -115 -114 -157 -156 158 0
157 -112 0
157 59 0
156 -142 0
156 63 0
61 -154 -146 -105 155 0
154 -149 0
154 -153 0
60 -126 -125 -152 -151 153 0
152 -131 0
152 75 0
151 -150 0
151 78 0
64 -134 -133 150 0
59 -99 -98 -148 -147 149 0
148 -96 0
148 50 0
147 -138 0
147 63 0
146 -141 0
146 -145 0
75 -111 -110 -144 -143 145 0
144 -116 0
144 60 0
143 -142 0
143 78 0
77 -119 -118 142 0
74 -95 -94 -140 -139 141 0
140 -100 0
140 51 0
139 -138 0
139 76 0
79 -103 -102 138 0
65 -136 -121 -105 137 0
136 -124 0
136 -135 0
64 -134 -133 -132 -128 135 0
134 77 0
134 51 0
133 79 0
133 60 0
132 -131 0
132 77 0
51 -130 -129 131 0
130 64 0
130 76 0
129 74 0
129 60 0
128 -127 0
128 79 0
60 -126 -125 127 0
126 75 0
126 51 0
125 78 0
125 64 0
63 -84 -123 -83 -122 124 0
123 -89 0
123 50 0
122 -106 0
122 59 0
121 -109 0
121 -120 0
77 -119 -118 -117 -113 120 0
119 64 0
119 50 0
118 75 0
118 79 0
117 -116 0
117 64 0
50 -115 -114 116 0
115 75 0
115 59 0
114 77 0
114 63 0
113 -112 0
113 79 0
75 -111 -110 112 0
111 60 0
111 50 0
110 77 0
110 78 0
76 -88 -87 -108 -107 109 0
108 -85 0
108 51 0
107 -106 0
107 74 0
78 -92 -91 106 0
105 -93 0
105 -104 0
79 -103 -102 -101 -97 104 0
103 59 0
103 64 0
102 77 0
102 74 0
101 -100 0
101 64 0
59 -99 -98 100 0
99 74 0
99 50 0
98 79 0
98 63 0
97 -96 0
97 77 0
74 -95 -94 96 0
95 59 0
95 51 0
94 79 0
94 76 0
78 -92 -91 -90 -86 93 0
92 60 0
92 63 0
91 75 0
91 76 0
90 -89 0
90 75 0
76 -88 -87 89 0
88 63 0
88 51 0
87 78 0
87 74 0
86 -85 0
86 60 0
63 -84 -83 85 0
84 50 0
84 76 0
83 78 0
83 59 0
